\ENCODING=ISO-8859-1
\Problem name: IloCplex

Maximize
 obj: w(1) + w(2) + w(3) + w(4) + w(5) + w(6) + w(7) + w(8)
Subject To
 inf: z(1) <= 2
 r_1: w(1) - z(1) <= 0
 r_2: w(2) - z(1) <= 0
 r_3: w(3) - z(1) <= 0
 r_4: w(4) - z(1) <= 0
 r_5: w(5) - z(1) <= 0
 r_6: w(6) - z(1) <= 0
 r_7: w(7) <= 0
 r_8: w(8) - z(1) <= 0
 c10: z(1) - Rgc10  = 0
 c11: z(2) - Rgc11  = 0
 c12: z(3) - Rgc12  = 0
 c13: z(4) - Rgc13  = 0
 c14: z(5) - Rgc14  = 0
 c15: z(6) - Rgc15  = 0
 c16: z(7) - Rgc16  = 0
 c17: z(8) - Rgc17  = 0
Bounds
 0 <= w(1) <= 1
 0 <= w(2) <= 1
 0 <= w(3) <= 1
 0 <= w(4) <= 1
 0 <= w(5) <= 1
 0 <= w(6) <= 1
 0 <= w(7) <= 1
 0 <= w(8) <= 1
 0 <= z(1) <= 1
 0 <= z(2) <= 1
 0 <= z(3) <= 1
 0 <= z(4) <= 1
 0 <= z(5) <= 1
 0 <= z(6) <= 1
 0 <= z(7) <= 1
 0 <= z(8) <= 1
 0 <= Rgc10 <= 1
 0 <= Rgc11 <= 1
 0 <= Rgc12 <= 1
 0 <= Rgc13 <= 1
 0 <= Rgc14 <= 1
 0 <= Rgc15 <= 1
 0 <= Rgc16 <= 1
 0 <= Rgc17 <= 1
Binaries
 w(1)  w(2)  w(3)  w(4)  w(5)  w(6)  w(7)  w(8)  z(1)  z(2)  z(3)  z(4)  z(5) 
 z(6)  z(7)  z(8) 
End
